17
-5 -3 6314 8
0 -2 3706 3
5 0 3754 5
-5 0 7963 3
-1 -4 5242 2
2 -5 6361 5
-6 5 8568 9
-4 0 6035 0
2 -6 3430 10
-3 -1 8919 6
1 2 2369 8
-5 0 7169 2
-4 -1 8024 2
5 5 5901 2
2 -2 2802 9
2 -3 4238 10
-3 -3 1237 0
